(set-logic ALL)
(declare-fun var0 () String)
(assert (str.in_re var0 (re.++ (re.* (re.+ (str.to_re "000"))) (re.++ (re.* (re.union (str.to_re "1") (str.to_re "222"))) (re.++ (re.+ (re.+ (str.to_re "33"))) (re.++ (re.union (re.+ (str.to_re "4")) (re.+ (str.to_re "5"))) (re.++ (re.+ (re.union (str.to_re "66") (str.to_re "777"))) (re.++ (re.union (re.* (str.to_re "8")) (re.* (str.to_re "99"))) (re.++ (re.+ (re.+ (str.to_re "aa"))) (re.++ (re.* (re.+ (str.to_re "b"))) (re.++ (re.* (re.* (str.to_re "cc"))) (re.++ (re.union (re.* (str.to_re "ddd")) (re.* (str.to_re "e"))) (re.++ (re.+ (re.+ (str.to_re "fff"))) (re.++ (re.union (re.union (str.to_re "gg") (str.to_re "hhh")) (re.union (str.to_re "ii") (str.to_re "jjj"))) (re.++ (re.union (re.union (str.to_re "kk") (str.to_re "ll")) (re.union (str.to_re "mm") (str.to_re "n"))) (re.++ (re.union (re.union (str.to_re "ooo") (str.to_re "ppp")) (re.union (str.to_re "qq") (str.to_re "rr"))) (re.++ (re.union (re.+ (str.to_re "s")) (re.+ (str.to_re "tt"))) (re.++ (re.union (re.+ (str.to_re "uuu")) (re.+ (str.to_re "vv"))) (re.++ (re.+ (re.+ (str.to_re "ww"))) (re.++ (re.* (re.* (str.to_re "xx"))) (re.+ (re.+ (str.to_re "yy")))))))))))))))))))))))
(check-sat)